num_teams = 8;
cost = [|0,2,7,34,43,2,16,28,
|44,0,20,2,29,30,42,11,
|12,26,0,9,45,30,18,1,
|8,28,30,0,14,44,39,18,
|6,11,19,48,0,27,1,17,
|15,23,2,21,28,0,47,5,
|11,1,30,9,38,50,0,44,
|20,16,28,35,18,50,30,0,
|];